152528 168 831601 36516951 177176 0.96
152810 171 846451 36285835 178922 0.95
152670 257 1272151 53620176 179830 0.96
152382 172 851401 36644252 178530 0.98
152614 257 1272151 53472259 178602 0.98
152244 175 866251 37240983 178030 0.94
152616 257 1272151 53975330 177194 0.78
152896 186 920701 39305084 178990 0.96
152778 190 940501 39567028 178462 1
153048 257 1272151 55336183 179148 0.99
